n_res = 3;
rcap = [12, 78, 75];
rtype = [1, 2, 2];
n_tasks = 16;
modes = [ {1, 2, 3}, {4, 5, 6}, {7, 8, 9}, {10, 11, 12}, {13, 14, 15}, {16, 17, 18}, {19, 20, 21}, {22, 23, 24}, {25, 26, 27}, {28, 29, 30}, {31, 32, 33}, {34, 35, 36}, {37, 38, 39}, {40, 41, 42}, {43, 44, 45}, {46, 47, 48} ];
succ = [ {6, 8, 12}, {8, 15}, {4, 5, 6}, {7, 9, 10}, {9, 15, 16}, {7, 11, 13}, {15}, {9, 13}, {11}, {11, 12}, {14}, {13, 14}, {16}, {}, {}, {} ];
n_opt = 48;
dur = [1, 3, 4, 2, 8, 8, 6, 8, 9, 2, 5, 10, 3, 3, 6, 7, 8, 10, 3, 4, 6, 2, 4, 6, 2, 5, 9, 5, 9, 9, 5, 5, 8, 6, 8, 10, 1, 4, 6, 7, 9, 10, 1, 2, 8, 5, 6, 9];
rreq = [|  9,  7,  6,  5,  4,  3,  9,  9,  8,  7,  6,  3,  6,  7,  2,  6,  5,  3,  5,  5,  4, 10,  8,  6,  8,  6,  5,  7,  6,  7,  3,  4,  2,  9,  8,  7,  3,  2,  1,  6,  3,  1,  5,  5,  5,  7,  5,  4
        |  4,  4,  3,  9,  6,  8,  6,  5,  3,  4,  4,  3,  6,  5,  1,  9,  8,  7,  5,  4,  4,  7,  6,  5,  7,  4,  2,  6,  4,  4,  9,  9,  5,  7,  6,  2,  8,  7,  7,  7,  6,  6,  8,  4,  2,  7,  7,  7
        |  7,  4,  4,  8,  5,  8,  6,  5,  5,  4,  4,  4,  8,  9,  8,  6,  6,  6,  5,  3,  1,  7,  5,  3,  2,  2,  1,  5,  3,  1,  9,  6,  4,  6,  6,  4,  5,  5,  4, 10,  9,  9,  4,  4,  2,  7,  6,  5 |];
